p cnf 31 32
-1 26 0 
-2 7 20 24 -3 8 -4 9 17 23 -5 12 27 0 
-3 8 26 0 
-6 11 -7 2 20 24 28 0 
-6 11 -8 3 28 0 
-6 11 -9 4 17 23 28 0 
-10 26 0 
-11 6 26 0 
-12 5 26 0 
-13 14 16 28 0 
-14 13 16 26 0 
-15 25 28 0 
-12 5 -16 13 14 28 0 
-17 4 9 23 26 0 
-18 -10 26 0 
-19 -3 8 26 0 
-5 12 -11 6 27 0 
-6 11 26 0 
-5 12 27 0 
-20 2 7 24 26 0 
-2 7 20 24 27 0 
-5 12 26 0 
-4 9 17 23 26 0 
-19 -21 -3 8 -1 26 0 
-20 2 7 24 27 0 
-11 6 -3 8 29 0 
-18 30 0 
-22 -14 13 16 -23 4 9 17 31 0 
-21 29 0 
-8 3 -16 13 14 28 0 
-22 -3 8 30 0 
-24 2 7 20 -25 15 28 0 
